GLPSOL--GLPK LP/MIP Solver 5.0
Parameter(s) specified in the command line:
 --lp ../modeles/4_199.lp --log 4_199.log
Reading problem data from '../modeles/4_199.lp'...
813 rows, 1600 columns, 5592 non-zeros
796 integer variables, all of which are binary
2423 lines were read
GLPK Integer Optimizer 5.0
813 rows, 1600 columns, 5592 non-zeros
796 integer variables, all of which are binary
Preprocessing...
792 constraint coefficient(s) were reduced
813 rows, 1596 columns, 5588 non-zeros
796 integer variables, all of which are binary
Scaling...
 A: min|aij| =  1.010e-04  max|aij| =  4.000e+00  ratio =  3.960e+04
GM: min|aij| =  7.089e-02  max|aij| =  1.411e+01  ratio =  1.990e+02
EQ: min|aij| =  5.025e-03  max|aij| =  1.000e+00  ratio =  1.990e+02
2N: min|aij| =  3.906e-03  max|aij| =  1.737e+00  ratio =  4.446e+02
Constructing initial basis...
Size of triangular part is 813
Solving LP relaxation...
GLPK Simplex Optimizer 5.0
813 rows, 1596 columns, 5588 non-zeros
      0: obj =   8.000000000e+00 inf =   1.950e+01 (9)
     51: obj =   4.998106061e-01 inf =   0.000e+00 (0)
*   194: obj =  -1.999623116e+00 inf =   3.923e-16 (0)
OPTIMAL LP SOLUTION FOUND
Integer optimization begins...
Long-step dual simplex will be used
+   194: mip =     not found yet >=              -inf        (1; 0)
+   200: >>>>>  -1.999623116e+00 >=  -1.999623116e+00 < 0.1% (5; 0)
+   200: mip =  -1.999623116e+00 >=     tree is empty   0.0% (0; 9)
INTEGER OPTIMAL SOLUTION FOUND
Time used:   0.0 secs
Memory used: 2.3 Mb (2411432 bytes)
